c *********************************
c * Circuit generated by BenCGen
c *
c * CarrySaveAdder_37_37_37_37_38
c *
c * Ports with 1 gate(s): 2
c * Ports with 2 gate(s): 186
c * Total gates: 188
c *********************************
p cnf 299 636
1 188 0
-1 -188 0
1 -187 0
188 -187 0
-1 -188 187 0
187 -149 0
-187 149 0
1 38 -189 0
-1 38 189 0
1 -38 189 0
-1 -38 -189 0
189 75 -112 0
-189 75 112 0
189 -75 112 0
-189 -75 -112 0
75 -190 0
189 -190 0
-75 -189 190 0
38 -191 0
1 -191 0
-38 -1 191 0
-190 150 0
-191 150 0
190 191 -150 0
2 39 -192 0
-2 39 192 0
2 -39 192 0
-2 -39 -192 0
192 76 -113 0
-192 76 113 0
192 -76 113 0
-192 -76 -113 0
76 -193 0
192 -193 0
-76 -192 193 0
39 -194 0
2 -194 0
-39 -2 194 0
-193 151 0
-194 151 0
193 194 -151 0
3 40 -195 0
-3 40 195 0
3 -40 195 0
-3 -40 -195 0
195 77 -114 0
-195 77 114 0
195 -77 114 0
-195 -77 -114 0
77 -196 0
195 -196 0
-77 -195 196 0
40 -197 0
3 -197 0
-40 -3 197 0
-196 152 0
-197 152 0
196 197 -152 0
4 41 -198 0
-4 41 198 0
4 -41 198 0
-4 -41 -198 0
198 78 -115 0
-198 78 115 0
198 -78 115 0
-198 -78 -115 0
78 -199 0
198 -199 0
-78 -198 199 0
41 -200 0
4 -200 0
-41 -4 200 0
-199 153 0
-200 153 0
199 200 -153 0
5 42 -201 0
-5 42 201 0
5 -42 201 0
-5 -42 -201 0
201 79 -116 0
-201 79 116 0
201 -79 116 0
-201 -79 -116 0
79 -202 0
201 -202 0
-79 -201 202 0
42 -203 0
5 -203 0
-42 -5 203 0
-202 154 0
-203 154 0
202 203 -154 0
6 43 -204 0
-6 43 204 0
6 -43 204 0
-6 -43 -204 0
204 80 -117 0
-204 80 117 0
204 -80 117 0
-204 -80 -117 0
80 -205 0
204 -205 0
-80 -204 205 0
43 -206 0
6 -206 0
-43 -6 206 0
-205 155 0
-206 155 0
205 206 -155 0
7 44 -207 0
-7 44 207 0
7 -44 207 0
-7 -44 -207 0
207 81 -118 0
-207 81 118 0
207 -81 118 0
-207 -81 -118 0
81 -208 0
207 -208 0
-81 -207 208 0
44 -209 0
7 -209 0
-44 -7 209 0
-208 156 0
-209 156 0
208 209 -156 0
8 45 -210 0
-8 45 210 0
8 -45 210 0
-8 -45 -210 0
210 82 -119 0
-210 82 119 0
210 -82 119 0
-210 -82 -119 0
82 -211 0
210 -211 0
-82 -210 211 0
45 -212 0
8 -212 0
-45 -8 212 0
-211 157 0
-212 157 0
211 212 -157 0
9 46 -213 0
-9 46 213 0
9 -46 213 0
-9 -46 -213 0
213 83 -120 0
-213 83 120 0
213 -83 120 0
-213 -83 -120 0
83 -214 0
213 -214 0
-83 -213 214 0
46 -215 0
9 -215 0
-46 -9 215 0
-214 158 0
-215 158 0
214 215 -158 0
10 47 -216 0
-10 47 216 0
10 -47 216 0
-10 -47 -216 0
216 84 -121 0
-216 84 121 0
216 -84 121 0
-216 -84 -121 0
84 -217 0
216 -217 0
-84 -216 217 0
47 -218 0
10 -218 0
-47 -10 218 0
-217 159 0
-218 159 0
217 218 -159 0
11 48 -219 0
-11 48 219 0
11 -48 219 0
-11 -48 -219 0
219 85 -122 0
-219 85 122 0
219 -85 122 0
-219 -85 -122 0
85 -220 0
219 -220 0
-85 -219 220 0
48 -221 0
11 -221 0
-48 -11 221 0
-220 160 0
-221 160 0
220 221 -160 0
12 49 -222 0
-12 49 222 0
12 -49 222 0
-12 -49 -222 0
222 86 -123 0
-222 86 123 0
222 -86 123 0
-222 -86 -123 0
86 -223 0
222 -223 0
-86 -222 223 0
49 -224 0
12 -224 0
-49 -12 224 0
-223 161 0
-224 161 0
223 224 -161 0
13 50 -225 0
-13 50 225 0
13 -50 225 0
-13 -50 -225 0
225 87 -124 0
-225 87 124 0
225 -87 124 0
-225 -87 -124 0
87 -226 0
225 -226 0
-87 -225 226 0
50 -227 0
13 -227 0
-50 -13 227 0
-226 162 0
-227 162 0
226 227 -162 0
14 51 -228 0
-14 51 228 0
14 -51 228 0
-14 -51 -228 0
228 88 -125 0
-228 88 125 0
228 -88 125 0
-228 -88 -125 0
88 -229 0
228 -229 0
-88 -228 229 0
51 -230 0
14 -230 0
-51 -14 230 0
-229 163 0
-230 163 0
229 230 -163 0
15 52 -231 0
-15 52 231 0
15 -52 231 0
-15 -52 -231 0
231 89 -126 0
-231 89 126 0
231 -89 126 0
-231 -89 -126 0
89 -232 0
231 -232 0
-89 -231 232 0
52 -233 0
15 -233 0
-52 -15 233 0
-232 164 0
-233 164 0
232 233 -164 0
16 53 -234 0
-16 53 234 0
16 -53 234 0
-16 -53 -234 0
234 90 -127 0
-234 90 127 0
234 -90 127 0
-234 -90 -127 0
90 -235 0
234 -235 0
-90 -234 235 0
53 -236 0
16 -236 0
-53 -16 236 0
-235 165 0
-236 165 0
235 236 -165 0
17 54 -237 0
-17 54 237 0
17 -54 237 0
-17 -54 -237 0
237 91 -128 0
-237 91 128 0
237 -91 128 0
-237 -91 -128 0
91 -238 0
237 -238 0
-91 -237 238 0
54 -239 0
17 -239 0
-54 -17 239 0
-238 166 0
-239 166 0
238 239 -166 0
18 55 -240 0
-18 55 240 0
18 -55 240 0
-18 -55 -240 0
240 92 -129 0
-240 92 129 0
240 -92 129 0
-240 -92 -129 0
92 -241 0
240 -241 0
-92 -240 241 0
55 -242 0
18 -242 0
-55 -18 242 0
-241 167 0
-242 167 0
241 242 -167 0
19 56 -243 0
-19 56 243 0
19 -56 243 0
-19 -56 -243 0
243 93 -130 0
-243 93 130 0
243 -93 130 0
-243 -93 -130 0
93 -244 0
243 -244 0
-93 -243 244 0
56 -245 0
19 -245 0
-56 -19 245 0
-244 168 0
-245 168 0
244 245 -168 0
20 57 -246 0
-20 57 246 0
20 -57 246 0
-20 -57 -246 0
246 94 -131 0
-246 94 131 0
246 -94 131 0
-246 -94 -131 0
94 -247 0
246 -247 0
-94 -246 247 0
57 -248 0
20 -248 0
-57 -20 248 0
-247 169 0
-248 169 0
247 248 -169 0
21 58 -249 0
-21 58 249 0
21 -58 249 0
-21 -58 -249 0
249 95 -132 0
-249 95 132 0
249 -95 132 0
-249 -95 -132 0
95 -250 0
249 -250 0
-95 -249 250 0
58 -251 0
21 -251 0
-58 -21 251 0
-250 170 0
-251 170 0
250 251 -170 0
22 59 -252 0
-22 59 252 0
22 -59 252 0
-22 -59 -252 0
252 96 -133 0
-252 96 133 0
252 -96 133 0
-252 -96 -133 0
96 -253 0
252 -253 0
-96 -252 253 0
59 -254 0
22 -254 0
-59 -22 254 0
-253 171 0
-254 171 0
253 254 -171 0
23 60 -255 0
-23 60 255 0
23 -60 255 0
-23 -60 -255 0
255 97 -134 0
-255 97 134 0
255 -97 134 0
-255 -97 -134 0
97 -256 0
255 -256 0
-97 -255 256 0
60 -257 0
23 -257 0
-60 -23 257 0
-256 172 0
-257 172 0
256 257 -172 0
24 61 -258 0
-24 61 258 0
24 -61 258 0
-24 -61 -258 0
258 98 -135 0
-258 98 135 0
258 -98 135 0
-258 -98 -135 0
98 -259 0
258 -259 0
-98 -258 259 0
61 -260 0
24 -260 0
-61 -24 260 0
-259 173 0
-260 173 0
259 260 -173 0
25 62 -261 0
-25 62 261 0
25 -62 261 0
-25 -62 -261 0
261 99 -136 0
-261 99 136 0
261 -99 136 0
-261 -99 -136 0
99 -262 0
261 -262 0
-99 -261 262 0
62 -263 0
25 -263 0
-62 -25 263 0
-262 174 0
-263 174 0
262 263 -174 0
26 63 -264 0
-26 63 264 0
26 -63 264 0
-26 -63 -264 0
264 100 -137 0
-264 100 137 0
264 -100 137 0
-264 -100 -137 0
100 -265 0
264 -265 0
-100 -264 265 0
63 -266 0
26 -266 0
-63 -26 266 0
-265 175 0
-266 175 0
265 266 -175 0
27 64 -267 0
-27 64 267 0
27 -64 267 0
-27 -64 -267 0
267 101 -138 0
-267 101 138 0
267 -101 138 0
-267 -101 -138 0
101 -268 0
267 -268 0
-101 -267 268 0
64 -269 0
27 -269 0
-64 -27 269 0
-268 176 0
-269 176 0
268 269 -176 0
28 65 -270 0
-28 65 270 0
28 -65 270 0
-28 -65 -270 0
270 102 -139 0
-270 102 139 0
270 -102 139 0
-270 -102 -139 0
102 -271 0
270 -271 0
-102 -270 271 0
65 -272 0
28 -272 0
-65 -28 272 0
-271 177 0
-272 177 0
271 272 -177 0
29 66 -273 0
-29 66 273 0
29 -66 273 0
-29 -66 -273 0
273 103 -140 0
-273 103 140 0
273 -103 140 0
-273 -103 -140 0
103 -274 0
273 -274 0
-103 -273 274 0
66 -275 0
29 -275 0
-66 -29 275 0
-274 178 0
-275 178 0
274 275 -178 0
30 67 -276 0
-30 67 276 0
30 -67 276 0
-30 -67 -276 0
276 104 -141 0
-276 104 141 0
276 -104 141 0
-276 -104 -141 0
104 -277 0
276 -277 0
-104 -276 277 0
67 -278 0
30 -278 0
-67 -30 278 0
-277 179 0
-278 179 0
277 278 -179 0
31 68 -279 0
-31 68 279 0
31 -68 279 0
-31 -68 -279 0
279 105 -142 0
-279 105 142 0
279 -105 142 0
-279 -105 -142 0
105 -280 0
279 -280 0
-105 -279 280 0
68 -281 0
31 -281 0
-68 -31 281 0
-280 180 0
-281 180 0
280 281 -180 0
32 69 -282 0
-32 69 282 0
32 -69 282 0
-32 -69 -282 0
282 106 -143 0
-282 106 143 0
282 -106 143 0
-282 -106 -143 0
106 -283 0
282 -283 0
-106 -282 283 0
69 -284 0
32 -284 0
-69 -32 284 0
-283 181 0
-284 181 0
283 284 -181 0
33 70 -285 0
-33 70 285 0
33 -70 285 0
-33 -70 -285 0
285 107 -144 0
-285 107 144 0
285 -107 144 0
-285 -107 -144 0
107 -286 0
285 -286 0
-107 -285 286 0
70 -287 0
33 -287 0
-70 -33 287 0
-286 182 0
-287 182 0
286 287 -182 0
34 71 -288 0
-34 71 288 0
34 -71 288 0
-34 -71 -288 0
288 108 -145 0
-288 108 145 0
288 -108 145 0
-288 -108 -145 0
108 -289 0
288 -289 0
-108 -288 289 0
71 -290 0
34 -290 0
-71 -34 290 0
-289 183 0
-290 183 0
289 290 -183 0
35 72 -291 0
-35 72 291 0
35 -72 291 0
-35 -72 -291 0
291 109 -146 0
-291 109 146 0
291 -109 146 0
-291 -109 -146 0
109 -292 0
291 -292 0
-109 -291 292 0
72 -293 0
35 -293 0
-72 -35 293 0
-292 184 0
-293 184 0
292 293 -184 0
36 73 -294 0
-36 73 294 0
36 -73 294 0
-36 -73 -294 0
294 110 -147 0
-294 110 147 0
294 -110 147 0
-294 -110 -147 0
110 -295 0
294 -295 0
-110 -294 295 0
73 -296 0
36 -296 0
-73 -36 296 0
-295 185 0
-296 185 0
295 296 -185 0
37 74 -297 0
-37 74 297 0
37 -74 297 0
-37 -74 -297 0
297 111 -148 0
-297 111 148 0
297 -111 148 0
-297 -111 -148 0
111 -298 0
297 -298 0
-111 -297 298 0
74 -299 0
37 -299 0
-74 -37 299 0
-298 186 0
-299 186 0
298 299 -186 0
